 Si Ge N O
   1.0
     5.3714739800000002    0.0000000000000000    0.0069496300000000
     0.0000000000000000    4.9863807900000001    0.0000000000000000
    -2.4278864699999998    0.0000000000000000    4.8119446400000001
 Si Ge N O
   2   2   4   2
Direct
   0.3326834000000000  0.6853098600000000  0.4777819700000000
   0.6673165999999999  0.1853098600000000  0.5222180300000000
   0.9761147600000000  0.6838164200000000  0.8232647300000000
   0.0238852400000000  0.1838164200000000  0.1767352700000000
   0.9074529800000000  0.3271595400000000  0.8304340000000000
   0.3492450800000000  0.3461805900000000  0.4200079600000000
   0.6507549200000000  0.8461805900000000  0.5799920400000000
   0.0925470200000000  0.8271595400000000  0.1695660000000000
   0.2367886500000000  0.7535352800000000  0.7189505899999999
   0.7632113500000000  0.2535352800000000  0.2810494100000000