 Yb Br O
   1.0
     9.2017178200000007    0.0000000000000000    0.0000000000000000
    -4.6008589100000004    7.9689213900000002    0.0000000000000000
     0.0000000000000000    0.0000000000000000    7.0005376200000002
 Yb Br O
   8  12   2
Direct
   0.2028553100000000  0.7971446900000000  0.9967691100000000
   0.3333333300000000  0.6666666700000000  0.5889562300000000
   0.5942893899999999  0.7971446900000000  0.9967691100000000
   0.2028553100000000  0.4057106100000000  0.9967691100000000
   0.7971446900000000  0.5942893899999999  0.4967691100000000
   0.6666666700000000  0.3333333300000000  0.0889562300000000
   0.4057106100000000  0.2028553100000000  0.4967691100000000
   0.7971446900000000  0.2028553100000000  0.4967691100000000
   0.1363673000000000  0.8636327000000000  0.6157496800000000
   0.4647702000000000  0.9295404100000000  0.2950749400000000
   0.7272654100000000  0.8636327000000000  0.6157496800000000
   0.0704595900000000  0.5352298000000000  0.2950749400000000
   0.4647702000000000  0.5352298000000000  0.2950749400000000
   0.8636327000000000  0.7272654100000000  0.1157496800000000
   0.1363673000000000  0.2727345900000000  0.6157496800000000
   0.5352298000000000  0.4647702000000000  0.7950749400000000
   0.2727345900000000  0.1363673000000000  0.1157496800000000
   0.9295404100000000  0.4647702000000000  0.7950749400000000
   0.5352298000000000  0.0704595900000000  0.7950749400000000
   0.8636327000000000  0.1363673000000000  0.1157496800000000
   0.3333333300000000  0.6666666700000000  0.8989465500000000
   0.6666666700000000  0.3333333300000000  0.3989465500000000