Automatic mesh
0
Gamma
     6     6     1
 0.000 0.000 0.000
