 Er Te O
   1.0
     3.8194419499999999    0.0000000000000000    0.0000000000000000
    -1.9097209799999999    3.3077337600000001    0.0000000000000000
     0.0000000000000000    0.0000000000000000   14.1491119500000000
 Er Te O
   4   2   4
Direct
   0.6666666700000000  0.3333333300000000  0.9025752900000000
   0.6666666700000000  0.3333333300000000  0.5974247100000001
   0.3333333300000000  0.6666666700000000  0.4025752900000000
   0.3333333300000000  0.6666666700000000  0.0974247100000000
   0.0000000000000000  0.0000000000000000  0.2500000000000000
   0.0000000000000000  0.0000000000000000  0.7500000000000000
   0.6666666700000000  0.3333333300000000  0.0602300500000000
   0.6666666700000000  0.3333333300000000  0.4397699500000000
   0.3333333300000000  0.6666666700000000  0.9397699500000000
   0.3333333300000000  0.6666666700000000  0.5602300499999999