 B O Si La
   1.0
     6.8130576600000001    0.0000000000000000    0.0000000000000000
    -3.4065288300000001    5.9002810099999996    0.0000000000000000
     0.0000000000000000    0.0000000000000000    6.7800261900000001
 B O Si La
   3  15   3   3
Direct
   0.0000000000000000  0.1091343500000000  0.6666666700000000
   0.8908656500000000  0.8908656500000000  0.0000000000000000
   0.1091343500000000  0.0000000000000000  0.3333333300000000
   0.5304266500000000  0.1371936100000000  0.0007476900000000
   0.6067669700000000  0.4695733500000000  0.6674143600000000
   0.8628063900000000  0.3932330300000000  0.3340810300000000
   0.0403090300000000  0.0000000000000000  0.8333333300000000
   0.9596909700000000  0.9596909700000000  0.5000000000000000
   0.0000000000000000  0.0403090300000000  0.1666666700000000
   0.1913262200000000  0.3458854200000000  0.6386170000000000
   0.1545592000000000  0.8086737800000000  0.3052836600000000
   0.6541145800000000  0.8454408000000000  0.9719503300000000
   0.8454408000000000  0.6541145800000000  0.0280496700000000
   0.3458854200000000  0.1913262200000000  0.3613830000000000
   0.8086737800000000  0.1545592000000000  0.6947163400000000
   0.4695733500000000  0.6067669700000000  0.3325856400000000
   0.1371936100000000  0.5304266500000000  0.9992523100000000
   0.3932330300000000  0.8628063900000000  0.6659189700000000
   0.0000000000000000  0.5809678500000000  0.1666666700000000
   0.4190321500000000  0.4190321500000000  0.5000000000000000
   0.5809678500000000  0.0000000000000000  0.8333333300000000
   0.0000000000000000  0.6012817800000000  0.6666666700000000
   0.3987182200000000  0.3987182200000000  0.0000000000000000
   0.6012817800000000  0.0000000000000000  0.3333333300000000