Automatic mesh
0
Gamma
     4     2     5
 0.000 0.000 0.000
