 O Er Ta
   1.0
     6.9001228799999996    0.0000000000000000   -0.0029837700000000
     0.0000000000000000   10.8093552000000006    0.0000000000000000
    -3.2762742899999999    0.0000000000000000    3.8109236300000000
 O Er Ta
  16   4   4
Direct
   0.7449998900000000  0.4696517000000000  0.2193493200000000
   0.2550001100000000  0.4696517000000000  0.2806506800000000
   0.7550001100000000  0.0303483000000000  0.7806506800000000
   0.2449998900000000  0.0303483000000000  0.7193493200000001
   0.3404881500000000  0.2878677100000000  0.8402413900000000
   0.6595118500000000  0.2878677100000000  0.6597586100000000
   0.1595118500000000  0.2121322900000000  0.1597586100000000
   0.8404881500000000  0.2121322900000000  0.3402413900000000
   0.2449998900000000  0.9696517000000000  0.2193493200000000
   0.7550001100000000  0.9696517000000000  0.2806506800000000
   0.2550001100000000  0.5303483000000000  0.7806506800000000
   0.7449998900000000  0.5303483000000000  0.7193493200000001
   0.8404881500000000  0.7878677100000000  0.8402413900000000
   0.1595118500000000  0.7878677100000000  0.6597586100000000
   0.6595118500000000  0.7121322900000000  0.1597586100000000
   0.3404881500000000  0.7121322900000000  0.3402413900000000
   0.0000000000000000  0.3681181800000000  0.7500000000000000
   0.5000000000000000  0.1318818200000000  0.2500000000000000
   0.5000000000000000  0.8681181800000000  0.7500000000000000
   0.0000000000000000  0.6318818200000000  0.2500000000000000
   0.5000000000000000  0.3986305100000000  0.7500000000000000
   0.0000000000000000  0.1013694900000000  0.2500000000000000
   0.0000000000000000  0.8986305100000000  0.7500000000000000
   0.5000000000000000  0.6013694900000000  0.2500000000000000