Automatic mesh
0
Gamma
     3     5     2
 0.000 0.000 0.000
