Automatic mesh
0
Gamma
     3     2     3
 0.000 0.000 0.000
