 P Cl Hg
   1.0
     7.8440752099999997    0.0000000000000000   -0.0722949500000000
     0.0000000000000000    8.8147611000000001    0.0000000000000000
    -1.0932468000000000    0.0000000000000000    7.4888524399999996
 P Cl Hg
  12   4   8
Direct
   0.8811166900000000  0.9428841600000000  0.0225527700000000
   0.1188833100000000  0.9428841600000000  0.4774472300000000
   0.1188833100000000  0.0571158400000000  0.9774472300000000
   0.5000000000000000  0.6958588900000000  0.7500000000000000
   0.5000000000000000  0.3041411100000000  0.2500000000000000
   0.8811166900000000  0.0571158400000000  0.5225527700000000
   0.3811166900000000  0.4428841600000000  0.0225527700000000
   0.6188833100000000  0.4428841600000000  0.4774472300000000
   0.6188833100000000  0.5571158400000000  0.9774472300000000
   0.0000000000000000  0.1958588900000000  0.7500000000000000
   0.0000000000000000  0.8041411100000000  0.2500000000000000
   0.3811166900000000  0.5571158400000000  0.5225527700000000
   0.5000000000000000  0.1292097300000000  0.7500000000000000
   0.5000000000000000  0.8707902700000000  0.2500000000000000
   0.0000000000000000  0.6292097300000000  0.7500000000000000
   0.0000000000000000  0.3707902700000000  0.2500000000000000
   0.7275200700000000  0.8635701800000000  0.6700973200000000
   0.2724799300000000  0.8635701800000000  0.8299026800000000
   0.7275200700000000  0.1364298200000000  0.1700973200000000
   0.2724799300000000  0.1364298200000000  0.3299026800000000
   0.2275200700000000  0.3635701800000000  0.6700973200000000
   0.7724799300000000  0.3635701800000000  0.8299026800000000
   0.2275200700000000  0.6364298200000000  0.1700973200000000
   0.7724799300000000  0.6364298200000000  0.3299026800000000