 O Mg Si Ca
   1.0
     7.8190960399999998    0.0000000000000000    0.0000000000000000
     0.0000000000000000    7.8190960399999998    0.0000000000000000
     0.0000000000000000    0.0000000000000000    4.9779156999999996
 O Mg Si Ca
  14   2   4   4
Direct
   0.4178369300000000  0.6836399000000000  0.7770455300000000
   0.5821630700000000  0.3163601000000000  0.7770455300000000
   0.3163601000000000  0.4178369300000000  0.2229544700000000
   0.6836399000000000  0.5821630700000000  0.2229544700000000
   0.1836399000000000  0.9178369300000000  0.7770455300000000
   0.9178369300000000  0.8163601000000000  0.2229544700000000
   0.0821630700000000  0.1836399000000000  0.2229544700000000
   0.8163601000000000  0.0821630700000000  0.7770455300000000
   0.3577289000000000  0.8577289000000000  0.2537132800000000
   0.8577289000000000  0.6422711000000000  0.7462867200000001
   0.5000000000000000  0.0000000000000000  0.8105593400000000
   0.0000000000000000  0.5000000000000000  0.1894406600000000
   0.6422711000000000  0.1422711000000000  0.2537132800000000
   0.1422711000000000  0.3577289000000000  0.7462867200000001
   0.0000000000000000  0.0000000000000000  0.0000000000000000
   0.5000000000000000  0.5000000000000000  0.0000000000000000
   0.8586404500000000  0.6413595500000000  0.0700181200000000
   0.6413595500000000  0.1413595500000000  0.9299818800000000
   0.1413595500000000  0.3586404500000000  0.0700181200000000
   0.3586404500000000  0.8586404500000000  0.9299818800000000
   0.3312974800000000  0.1687025200000000  0.4965735500000000
   0.8312974800000000  0.3312974800000000  0.5034264500000001
   0.1687025200000000  0.6687025200000001  0.5034264500000001
   0.6687025200000001  0.8312974800000000  0.4965735500000000