Automatic mesh
0
Gamma
     2     2     3
 0.000 0.000 0.000
