 Na Mn Te
   1.0
     9.9069518199999997    0.0000000000000000    0.0000000000000000
    -4.9534759099999999    8.5796719499999998    0.0000000000000000
     0.0000000000000000    0.0000000000000000    7.3520489099999997
 Na Mn Te
  12   2   8
Direct
   0.2918028200000000  0.1459014200000000  0.4410624600000000
   0.1459014200000000  0.8540985800000001  0.9410624600000000
   0.1459014200000000  0.2918028200000000  0.9410624600000000
   0.8540985800000001  0.7081971800000000  0.4410624600000000
   0.8540985800000001  0.1459014200000000  0.4410624600000000
   0.7081971800000000  0.8540985800000001  0.9410624600000000
   0.0441359300000000  0.5220679600000000  0.6355110600000000
   0.5220679600000000  0.4779320400000000  0.1355110600000000
   0.5220679600000000  0.0441359300000000  0.1355110600000000
   0.4779320400000000  0.9558640700000000  0.6355110600000000
   0.4779320400000000  0.5220679600000000  0.6355110600000000
   0.9558640700000000  0.4779320400000000  0.1355110600000000
   0.6666666700000000  0.3333333300000000  0.7585752200000000
   0.3333333300000000  0.6666666700000000  0.2585752200000000
   0.6666666700000000  0.3333333300000000  0.4158977300000000
   0.3333333300000000  0.6666666700000000  0.9158977300000000
   0.3849248600000000  0.1924624200000000  0.8563688200000000
   0.1924624200000000  0.8075375800000000  0.3563688200000000
   0.1924624200000000  0.3849248600000000  0.3563688200000000
   0.8075375800000000  0.6150751400000001  0.8563688200000000
   0.8075375800000000  0.1924624200000000  0.8563688200000000
   0.6150751400000001  0.8075375800000000  0.3563688200000000