 Cd I
   1.0
     4.2219764499999997    0.0000000000000000    0.0000000000000000
    -2.1109882299999998    3.6563388600000000    0.0000000000000000
     0.0000000000000000    0.0000000000000000   41.1036602100000010
 Cd I
   6  12
Direct
   0.3333333300000000  0.6666666700000000  0.5416053599999999
   0.3333333300000000  0.6666666700000000  0.3749608500000000
   0.0000000000000000  0.0000000000000000  0.7083516599999999
   0.6666666700000000  0.3333333300000000  0.0417022400000000
   0.0000000000000000  0.0000000000000000  0.2083553100000000
   0.0000000000000000  0.0000000000000000  0.8750254000000000
   0.3333333300000000  0.6666666700000000  0.0831857100000000
   0.0000000000000000  0.0000000000000000  0.5830873700000000
   0.6666666700000000  0.3333333300000000  0.8335529500000000
   0.3333333300000000  0.6666666700000000  0.9165062400000000
   0.6666666700000000  0.3333333300000000  0.3334803500000000
   0.3333333300000000  0.6666666700000000  0.7498229400000000
   0.0000000000000000  0.0000000000000000  0.4164292500000000
   0.0000000000000000  0.0000000000000000  0.0002271600000000
   0.6666666700000000  0.3333333300000000  0.6668692899999999
   0.6666666700000000  0.3333333300000000  0.5001296399999999
   0.3333333300000000  0.6666666700000000  0.2498342100000000
   0.6666666700000000  0.3333333300000000  0.1668740700000000