 O P K Sr
   1.0
     7.3517783799999998    0.0000000000000000    0.0000000000000000
     0.0000000000000000    5.5517904900000001    0.0000000000000000
     0.0000000000000000    0.0000000000000000    9.6186513700000003
 O P K Sr
  16   4   4   4
Direct
   0.0167223700000000  0.2500000000000000  0.0748640200000000
   0.9832776300000000  0.7500000000000000  0.9251359800000000
   0.5167223700000000  0.2500000000000000  0.4251359800000000
   0.4832776300000000  0.7500000000000000  0.5748640199999999
   0.2088438300000000  0.9797172000000000  0.6613112100000000
   0.7911561700000000  0.4797172000000000  0.3386887900000000
   0.7088438300000000  0.5202827999999999  0.8386887900000000
   0.2911561700000000  0.0202828000000000  0.1613112100000000
   0.7911561700000000  0.0202828000000000  0.3386887900000000
   0.2088438300000000  0.5202827999999999  0.6613112100000000
   0.2911561700000000  0.4797172000000000  0.1613112100000000
   0.7088438300000000  0.9797172000000000  0.8386887900000000
   0.6930332900000000  0.7500000000000000  0.0672638100000000
   0.3069667100000000  0.2500000000000000  0.9327361900000000
   0.1930332900000000  0.7500000000000000  0.4327361900000000
   0.8069667100000000  0.2500000000000000  0.5672638100000000
   0.7269656600000001  0.2500000000000000  0.4169787600000000
   0.2730343400000000  0.7500000000000000  0.5830212400000000
   0.2269656600000000  0.2500000000000000  0.0830212400000000
   0.7730343399999999  0.7500000000000000  0.9169787600000000
   0.1559805400000000  0.2500000000000000  0.4155361400000000
   0.3440194600000000  0.7500000000000000  0.9155361399999999
   0.8440194599999999  0.7500000000000000  0.5844638600000001
   0.6559805400000001  0.2500000000000000  0.0844638600000000
   0.0020174200000000  0.7500000000000000  0.1960820000000000
   0.5020174200000000  0.7500000000000000  0.3039180000000000
   0.4979825800000000  0.2500000000000000  0.6960820000000000
   0.9979825800000000  0.2500000000000000  0.8039180000000000