 O Sb Sm
   1.0
    10.8579889800000000    0.0000000000000000    0.0000000000000000
     0.0000000000000000   10.8579889800000000    0.0000000000000000
     0.0000000000000000    0.0000000000000000   10.8579889800000000
 O Sb Sm
  48  20  12
Direct
   0.6377288300000000  0.3622711700000000  0.1625059800000000
   0.6625059799999999  0.1377288300000000  0.8622711700000000
   0.3622711700000000  0.8374940200000001  0.3622711700000000
   0.8622711700000000  0.6625059799999999  0.1377288300000000
   0.3374940200000000  0.1377288300000000  0.1377288300000000
   0.3622711700000000  0.3622711700000000  0.8374940200000001
   0.1377288300000000  0.1377288300000000  0.3374940200000000
   0.8374940200000001  0.3622711700000000  0.3622711700000000
   0.6625059799999999  0.8622711700000000  0.1377288300000000
   0.1377288300000000  0.3374940200000000  0.1377288300000000
   0.1377288300000000  0.6625059799999999  0.8622711700000000
   0.3622711700000000  0.6377288300000000  0.1625059800000000
   0.3989666500000000  0.6010333500000000  0.8907408200000000
   0.3907408200000000  0.8989666500000000  0.1010333500000000
   0.1010333500000000  0.6092591800000000  0.1010333500000000
   0.1010333500000000  0.3907408200000000  0.8989666500000000
   0.6010333500000000  0.3989666500000000  0.8907408200000000
   0.8989666500000000  0.3907408200000000  0.1010333500000000
   0.3989666500000000  0.1092591800000000  0.3989666500000000
   0.3907408200000000  0.1010333500000000  0.8989666500000000
   0.6092591800000000  0.1010333500000000  0.1010333500000000
   0.3989666500000000  0.3989666500000000  0.1092591800000000
   0.1010333500000000  0.1010333500000000  0.6092591800000000
   0.1092591800000000  0.3989666500000000  0.3989666500000000
   0.1377288300000000  0.8622711700000000  0.6625059799999999
   0.1625059800000000  0.6377288300000000  0.3622711700000000
   0.8622711700000000  0.3374940200000000  0.8622711700000000
   0.3622711700000000  0.1625059800000000  0.6377288300000000
   0.8374940200000001  0.6377288300000000  0.6377288300000000
   0.8622711700000000  0.8622711700000000  0.3374940200000000
   0.6377288300000000  0.6377288300000000  0.8374940200000001
   0.3374940200000000  0.8622711700000000  0.8622711700000000
   0.1625059800000000  0.3622711700000000  0.6377288300000000
   0.6377288300000000  0.8374940200000001  0.6377288300000000
   0.6377288300000000  0.1625059800000000  0.3622711700000000
   0.8622711700000000  0.1377288300000000  0.6625059799999999
   0.8989666500000000  0.1010333500000000  0.3907408200000000
   0.8907408200000000  0.3989666500000000  0.6010333500000000
   0.6010333500000000  0.1092591800000000  0.6010333500000000
   0.6010333500000000  0.8907408200000000  0.3989666500000000
   0.1010333500000000  0.8989666500000000  0.3907408200000000
   0.3989666500000000  0.8907408200000000  0.6010333500000000
   0.8989666500000000  0.6092591800000000  0.8989666500000000
   0.8907408200000000  0.6010333500000000  0.3989666500000000
   0.1092591800000000  0.6010333500000000  0.6010333500000000
   0.8989666500000000  0.8989666500000000  0.6092591800000000
   0.6010333500000000  0.6010333500000000  0.1092591800000000
   0.6092591800000000  0.8989666500000000  0.8989666500000000
   0.2430485500000000  0.2430485500000000  0.7569514500000000
   0.2569514500000000  0.2569514500000000  0.2569514500000000
   0.7569514500000000  0.2430485500000000  0.2430485500000000
   0.7430485499999999  0.2569514500000000  0.7430485499999999
   0.0000000000000000  0.2780511400000000  0.0000000000000000
   0.0000000000000000  0.7219488600000000  0.0000000000000000
   0.5000000000000000  0.5000000000000000  0.7780511400000000
   0.5000000000000000  0.5000000000000000  0.2219488600000000
   0.7219488600000000  0.0000000000000000  0.0000000000000000
   0.2780511400000000  0.0000000000000000  0.0000000000000000
   0.7430485499999999  0.7430485499999999  0.2569514500000000
   0.7569514500000000  0.7569514500000000  0.7569514500000000
   0.2569514500000000  0.7430485499999999  0.7430485499999999
   0.2430485500000000  0.7569514500000000  0.2430485500000000
   0.5000000000000000  0.7780511400000000  0.5000000000000000
   0.5000000000000000  0.2219488600000000  0.5000000000000000
   0.0000000000000000  0.0000000000000000  0.2780511400000000
   0.0000000000000000  0.0000000000000000  0.7219488600000000
   0.2219488600000000  0.5000000000000000  0.5000000000000000
   0.7780511400000000  0.5000000000000000  0.5000000000000000
   0.5000000000000000  0.0000000000000000  0.2500000000000000
   0.2500000000000000  0.0000000000000000  0.5000000000000000
   0.2500000000000000  0.5000000000000000  0.0000000000000000
   0.5000000000000000  0.2500000000000000  0.0000000000000000
   0.0000000000000000  0.2500000000000000  0.5000000000000000
   0.0000000000000000  0.5000000000000000  0.2500000000000000
   0.0000000000000000  0.5000000000000000  0.7500000000000000
   0.7500000000000000  0.5000000000000000  0.0000000000000000
   0.7500000000000000  0.0000000000000000  0.5000000000000000
   0.0000000000000000  0.7500000000000000  0.5000000000000000
   0.5000000000000000  0.7500000000000000  0.0000000000000000
   0.5000000000000000  0.0000000000000000  0.7500000000000000