 Ca P
   1.0
     6.8355063200000004    0.0000000000000000    0.0056750200000000
     0.0000000000000000   11.7837054999999999    0.0000000000000000
    -2.3064499100000000    0.0000000000000000    7.0243006899999996
 Ca P
  10  16
Direct
   0.5000000000000000  0.0000000000000000  0.5000000000000000
   0.5000000000000000  0.6756536200000001  0.5000000000000000
   0.5000000000000000  0.3243463800000000  0.5000000000000000
   0.5000000000000000  0.1652076500000000  0.0000000000000000
   0.5000000000000000  0.8347923500000000  0.0000000000000000
   0.0000000000000000  0.5000000000000000  0.5000000000000000
   0.0000000000000000  0.1756536200000000  0.5000000000000000
   0.0000000000000000  0.8243463799999999  0.5000000000000000
   0.0000000000000000  0.6652076499999999  0.0000000000000000
   0.0000000000000000  0.3347923500000000  0.0000000000000000
   0.2247938000000000  0.0000000000000000  0.7560317800000000
   0.7752062000000000  0.0000000000000000  0.2439682200000000
   0.7670425900000000  0.1540543000000000  0.7601114900000000
   0.2329574100000000  0.1540543000000000  0.2398885100000000
   0.2329574100000000  0.8459457000000000  0.2398885100000000
   0.7670425900000000  0.8459457000000000  0.7601114900000000
   0.9473024300000000  0.0000000000000000  0.8353561700000001
   0.0526975700000000  0.0000000000000000  0.1646438300000000
   0.7247938000000000  0.5000000000000000  0.7560317800000000
   0.2752062000000000  0.5000000000000000  0.2439682200000000
   0.2670425900000000  0.6540543000000000  0.7601114900000000
   0.7329574100000000  0.6540543000000000  0.2398885100000000
   0.7329574100000000  0.3459457000000000  0.2398885100000000
   0.2670425900000000  0.3459457000000000  0.7601114900000000
   0.4473024300000000  0.5000000000000000  0.8353561700000001
   0.5526975700000001  0.5000000000000000  0.1646438300000000