 Sb I O
   1.0
     7.0142751700000003    0.0000000000000000   -0.0455108000000000
     0.0000000000000000    5.1817494699999997    0.0000000000000000
    -1.4809491200000000    0.0000000000000000   13.5128495900000001
 Sb I O
   8   4  10
Direct
   0.1849725800000000  0.3816488900000000  0.7964627900000000
   0.8150274200000001  0.8816488900000000  0.7035372100000000
   0.8150274200000001  0.6183511100000000  0.2035372100000000
   0.1849725800000000  0.1183511100000000  0.2964627900000000
   0.8344078800000000  0.2782716900000000  0.9470956300000000
   0.1655921200000000  0.7782716900000000  0.5529043700000000
   0.1655921200000000  0.7217283100000000  0.0529043700000000
   0.8344078800000000  0.2217283100000000  0.4470956300000000
   0.5058407500000000  0.2926402200000000  0.6197029100000000
   0.4941592500000000  0.7926402200000000  0.8802970900000000
   0.4941592500000000  0.7073597800000000  0.3802970900000000
   0.5058407500000000  0.2073597800000000  0.1197029100000000
   0.9341607300000000  0.4925775500000000  0.0821857300000000
   0.0658392700000000  0.9925775500000000  0.4178142700000000
   0.0658392700000000  0.5074224500000000  0.9178142700000000
   0.9341607300000000  0.0074224500000000  0.5821857300000000
   0.9286839300000000  0.1682191000000000  0.7912293699999999
   0.0713160700000000  0.6682191000000000  0.7087706300000001
   0.0713160700000000  0.8317809000000000  0.2087706300000000
   0.9286839300000000  0.3317809000000000  0.2912293700000000
   0.0000000000000000  0.5000000000000000  0.5000000000000000
   0.0000000000000000  0.0000000000000000  0.0000000000000000