 O Ti
   1.0
     5.1291343700000001    0.0000000000000000    0.0000000000000000
     0.0000000000000000    9.1832581300000005    0.0000000000000000
     0.0000000000000000    0.0000000000000000    5.4489092100000001
 O Ti
  16   8
Direct
   0.4648822700000000  0.2699833900000000  0.3909509500000000
   0.9648822700000000  0.2300166100000000  0.6090490500000000
   0.0351177300000000  0.7300166100000001  0.8909509500000000
   0.5351177300000001  0.7699833899999999  0.1090490500000000
   0.5351177300000001  0.7300166100000001  0.6090490500000000
   0.0351177300000000  0.7699833899999999  0.3909509500000000
   0.9648822700000000  0.2699833900000000  0.1090490500000000
   0.4648822700000000  0.2300166100000000  0.8909509500000000
   0.8154578400000000  0.0103635000000000  0.8514392500000000
   0.3154578400000000  0.4896365000000000  0.1485607500000000
   0.6845421600000000  0.9896365000000000  0.3514392500000000
   0.1845421600000000  0.5103635000000000  0.6485607500000000
   0.1845421600000000  0.9896365000000000  0.1485607500000000
   0.6845421600000000  0.5103635000000000  0.8514392500000000
   0.3154578400000000  0.0103635000000000  0.6485607500000000
   0.8154578400000000  0.4896365000000000  0.3514392500000000
   0.1383832300000000  0.3710659700000000  0.4043282000000000
   0.6383832300000001  0.1289340300000000  0.5956718000000000
   0.3616167700000000  0.6289340299999999  0.9043282000000000
   0.8616167700000000  0.8710659700000000  0.0956718000000000
   0.8616167700000000  0.6289340299999999  0.5956718000000000
   0.3616167700000000  0.8710659700000000  0.4043282000000000
   0.6383832300000001  0.3710659700000000  0.0956718000000000
   0.1383832300000000  0.1289340300000000  0.9043282000000000