 O Bi Sm I
   1.0
     3.9360242200000002    0.0000000000000000    0.0000000000000000
     0.0000000000000000    3.9360242200000002    0.0000000000000000
     0.0000000000000000    0.0000000000000000    9.5113731799999996
 O Bi Sm I
   4   2   1   1
Direct
   0.5000000000000000  0.0000000000000000  0.1482265200000000
   0.0000000000000000  0.5000000000000000  0.1482265200000000
   0.5000000000000000  0.0000000000000000  0.8517734800000000
   0.0000000000000000  0.5000000000000000  0.8517734800000000
   0.5000000000000000  0.5000000000000000  0.2626481000000000
   0.5000000000000000  0.5000000000000000  0.7373518999999999
   0.0000000000000000  0.0000000000000000  0.0000000000000000
   0.0000000000000000  0.0000000000000000  0.5000000000000000