 F Pb
   1.0
     5.8928997900000004    0.0000000000000000    0.0000000000000000
     0.0000000000000000    5.8928997900000004    0.0000000000000000
     0.0000000000000000    0.0000000000000000    5.8928997900000004
 F Pb
   8   4
Direct
   0.7500000000000000  0.2500000000000000  0.2500000000000000
   0.7500000000000000  0.2500000000000000  0.7500000000000000
   0.7500000000000000  0.7500000000000000  0.7500000000000000
   0.7500000000000000  0.7500000000000000  0.2500000000000000
   0.2500000000000000  0.2500000000000000  0.7500000000000000
   0.2500000000000000  0.2500000000000000  0.2500000000000000
   0.2500000000000000  0.7500000000000000  0.2500000000000000
   0.2500000000000000  0.7500000000000000  0.7500000000000000
   0.0000000000000000  0.0000000000000000  0.0000000000000000
   0.0000000000000000  0.5000000000000000  0.5000000000000000
   0.5000000000000000  0.0000000000000000  0.5000000000000000
   0.5000000000000000  0.5000000000000000  0.0000000000000000