 N
   1.0
     5.7863128899999996    0.0000000000000000    0.0000000000000000
     0.0000000000000000    5.7863128899999996    0.0000000000000000
     0.0000000000000000    0.0000000000000000    5.7863128899999996
 N
   8
Direct
   0.0555044700000000  0.0555044700000000  0.0555044700000000
   0.4444955300000000  0.9444955300000000  0.5555044700000000
   0.5555044700000000  0.4444955300000000  0.9444955300000000
   0.9444955300000000  0.5555044700000000  0.4444955300000000
   0.9446136700000000  0.9446136700000000  0.9446136700000000
   0.5553863299999999  0.0553863300000000  0.4446136700000000
   0.4446136700000000  0.5553863299999999  0.0553863300000000
   0.0553863300000000  0.4446136700000000  0.5553863299999999