 Ga Se
   1.0
     3.7493843800000000    0.0000000000000000    0.0000000000000000
    -1.8746921900000000    3.2470621199999998    0.0000000000000000
     0.0000000000000000    0.0000000000000000   24.1372379700000010
 Ga Se
   6   6
Direct
   0.0000000000000000  0.0000000000000000  0.9495124500000000
   0.3333333300000000  0.6666666700000000  0.7168016600000000
   0.6666666700000000  0.3333333300000000  0.2828457800000000
   0.0000000000000000  0.0000000000000000  0.0501350000000000
   0.3333333300000000  0.6666666700000000  0.6161791100000000
   0.6666666700000000  0.3333333300000000  0.3834683300000000
   0.3333333300000000  0.6666666700000000  0.9010080700000000
   0.6666666700000000  0.3333333300000000  0.7653444899999999
   0.0000000000000000  0.0000000000000000  0.2343414000000000
   0.3333333300000000  0.6666666700000000  0.0986778200000000
   0.6666666700000000  0.3333333300000000  0.5676747400000000
   0.0000000000000000  0.0000000000000000  0.4320111500000000